unknown
(model
; cardinality of BoundSet is 1
(declare-sort BoundSet 0)
; rep: @uc_BoundSet_0
; cardinality of UnboundSet is 1
(declare-sort UnboundSet 0)
; rep: @uc_UnboundSet_0
(define-fun b () UnboundSet @uc_UnboundSet_0)
(define-fun IsWalkedDown ((BOUND_VARIABLE_329 BoundSet) (BOUND_VARIABLE_330 UnboundSet)) Bool true)
(define-fun IsOutside ((BOUND_VARIABLE_340 BoundSet)) Bool false)
)
